c A SAT instance generated from a 3-CNF formula that had 18 clauses and 6 variables
p cnf 6 18
-1 -3 -6 0
4 1 -5 0
3 -1 -6 0
-1 -6 2 0
4 -3 1 0
-1 -3 -6 0
4 -2 -3 0
-5 -3 1 0
-2 -5 1 0
1 4 2 0
4 2 -5 0
1 -3 5 0
5 2 4 0
4 3 5 0
1 6 2 0
-6 2 4 0
3 2 -5 0
3 -4 -5 0
